data_generator/7.atsp
NAME: 7
TYPE: ATSP
DIMENSION: 7
EDGE_WEIGHT_TYPE: EXPLICIT
EDGE_WEIGHT_FORMAT: FULL_MATRIX
EDGE_WEIGHT_SECTION
 999999 75 27 22 52 82 65
 56 999999 4 47 72 28 7
 19 9 999999 31 95 26 30
 24 87 20 999999 15 15 54
 27 43 58 26 999999 26 55
 96 71 21 24 37 999999 18
 76 65 95 35 11 95 999999
EOF
