data_generator/7.opt.tour
NAME : 7.opt.tour
TYPE : TOUR
DIMENSION : 7
COMMENT : OPTIMAL_COST = 112
TOUR_SECTION
1
4
6
3
2
7
5
-1
EOF
